benchmarks_vrp/CMT3/min_c/CMT3_6.vrp
NAME: CMT3_6
TYPE: CVRP
COMMENT: 826.14 - Cluster Nr.6
DIMENSION: 9
CAPACITY: 200
EDGE_WEIGHT_TYPE: EUC_2D
NODE_COORD_TYPE: TWOD_COORDS
NODE_COORD_SECTION: 
9 55 20
3 55 5
4 63 23
8 60 12
7 35 35
2 65 20
1 67 5
6 57 29
5 53 12
DEPOT_SECTION: 
7
-1
DEMAND_SECTION: 
7 0
2 6
5 6
3 29
4 2
1 25
8 31
6 18
9 19
EOF
