benchmarks_vrp/CMT3/min_c/CMT3_6.tour
NAME: CMT3_6 solution
TYPE: TOUR
TOUR_SECTION:
7 6 4 2 8 1 3 5 9 -1
-1
EOF